(set-info :original "/var/folders/xz/sgqbj6yn0yv_1mpy6_jqympm0000gn/T/sea-HxYFG2/check_removal_from_set_after_insertion.pp.ms.o.bc")
(set-info :authors "SeaHorn v.0.1.0-rc3")
(declare-rel verifier.error (Bool Bool Bool ))
(declare-rel elem_exists@_sm ((Array Int Int) Int Int Int ))
(declare-rel elem_exists@_.01 ((Array Int Int) Int Int Int Int ))
(declare-rel elem_exists@.split ((Array Int Int) Int Int Int Int ))
(declare-rel elem_exists (Bool Bool Bool (Array Int Int) (Array Int Int) Int Int Int Int ))
(declare-rel insert@_sm1 ((Array Int Int) Int Int Int ))
(declare-rel insert@.split ((Array Int Int) (Array Int Int) Int Int Int Int ))
(declare-rel insert (Bool Bool Bool (Array Int Int) (Array Int Int) Int Int Int Int ))
(declare-rel __JVERIFIER_assert@_call (Int ))
(declare-rel __JVERIFIER_assert@_ret (Int ))
(declare-rel __JVERIFIER_assert (Bool Bool Bool Int ))
(declare-rel main@entry (Int ))
(declare-rel main@_bb (Int Int (Array Int Int) Int Int (Array Int Int) Int ))
(declare-rel main@_bb8 (Int Int Int (Array Int Int) Int (Array Int Int) Int Int ))
(declare-rel main@_bb13 (Int Int (Array Int Int) Int Int Int ))
(declare-rel main@_bb17 (Int Int Int Int (Array Int Int) ))
(declare-rel main@_bb21 (Int Int (Array Int Int) Int ))
(declare-rel main@verifier.error.split ())
(declare-var elem_exists@%_call_0 Int )
(declare-var elem_exists@arg.0_0 Int )
(declare-var elem_exists@%_9_0 Int )
(declare-var elem_exists@%_br1_0 Bool )
(declare-var elem_exists@arg.2_0 Int )
(declare-var elem_exists@%_br_0 Bool )
(declare-var elem_exists@arg.1_0 Int )
(declare-var elem_exists@%.0_2 Int )
(declare-var elem_exists@%sm_0 (Array Int Int) )
(declare-var elem_exists@%.0_0 Int )
(declare-var elem_exists@_sm_0 Bool )
(declare-var elem_exists@_.01_0 Bool )
(declare-var elem_exists@%.01_0 Int )
(declare-var elem_exists@%.01_1 Int )
(declare-var elem_exists@_7_0 Bool )
(declare-var elem_exists@_11_0 Bool )
(declare-var elem_exists@%_br2_0 Int )
(declare-var elem_exists@_.01_1 Bool )
(declare-var elem_exists@%.01_2 Int )
(declare-var elem_exists@_.0_0 Bool )
(declare-var |tuple(elem_exists@_7_0, elem_exists@_.0_0)| Bool )
(declare-var |tuple(elem_exists@_.01_0, elem_exists@_.0_0)| Bool )
(declare-var elem_exists@%.0_1 Int )
(declare-var elem_exists@.split_0 Bool )
(declare-var insert@%_sm_0 Int )
(declare-var insert@arg.0_0 Int )
(declare-var insert@arg.1_0 Int )
(declare-var insert@arg.2_0 Int )
(declare-var insert@%sm1_0 (Array Int Int) )
(declare-var insert@%sm_0 (Array Int Int) )
(declare-var insert@%_br_0 Int )
(declare-var insert@_sm1_0 Bool )
(declare-var insert@.split_0 Bool )
(declare-var __JVERIFIER_assert@%_call1_0 Bool )
(declare-var __JVERIFIER_assert@arg.0_0 Int )
(declare-var __JVERIFIER_assert@_call_0 Bool )
(declare-var __JVERIFIER_assert@_ret_0 Bool )
(declare-var main@%_10_0 Int )
(declare-var main@%_11_0 Int )
(declare-var main@%_12_0 Int )
(declare-var main@%_13_0 Int )
(declare-var main@%_25_0 Int )
(declare-var main@%_26_0 Int )
(declare-var main@%_27_0 Int )
(declare-var main@%_19_0 Int )
(declare-var main@%_20_0 Int )
(declare-var main@%_21_0 Int )
(declare-var main@%_22_0 Int )
(declare-var main@%_23_0 Bool )
(declare-var main@%shadow.mem.0.2_2 (Array Int Int) )
(declare-var main@%.15.i_2 Int )
(declare-var main@%_37_0 Int )
(declare-var main@%_38_0 Int )
(declare-var main@%_39_0 Bool )
(declare-var main@%_46_0 Int )
(declare-var main@%_47_0 Int )
(declare-var main@%_48_0 Int )
(declare-var main@%_49_0 Int )
(declare-var main@%_63_0 Bool )
(declare-var main@%_57_0 Int )
(declare-var main@%_58_0 Int )
(declare-var main@%_59_0 Bool )
(declare-var main@%_61_0 Bool )
(declare-var main@%_55_0 Bool )
(declare-var main@%_52_0 Bool )
(declare-var main@%_44_0 Bool )
(declare-var main@%cond.i_0 Bool )
(declare-var main@%_33_0 Bool )
(declare-var main@%_34_0 Bool )
(declare-var main@%_35_0 Bool )
(declare-var main@%_17_0 Bool )
(declare-var main@%_6_0 Bool )
(declare-var main@%_7_0 Int )
(declare-var main@%_3_0 Int )
(declare-var main@%_4_0 Int )
(declare-var @__VERIFIER_nondet_int_0 Int )
(declare-var main@entry_0 Bool )
(declare-var main@%sm4_0 (Array Int Int) )
(declare-var main@%sm5_0 (Array Int Int) )
(declare-var main@%_0_0 Int )
(declare-var main@%_1_0 Int )
(declare-var main@%_2_0 Int )
(declare-var main@_bb_0 Bool )
(declare-var main@%shadow.mem.0.0_0 (Array Int Int) )
(declare-var main@%shadow.mem.4.0_0 (Array Int Int) )
(declare-var main@%.01.i_0 Int )
(declare-var main@%shadow.mem.0.0_1 (Array Int Int) )
(declare-var main@%shadow.mem.4.0_1 (Array Int Int) )
(declare-var main@%.01.i_1 Int )
(declare-var main@%_8_0 Int )
(declare-var main@_bb6_0 Bool )
(declare-var main@%sm_0 (Array Int Int) )
(declare-var main@%sm1_0 (Array Int Int) )
(declare-var main@%_14_0 Int )
(declare-var main@_bb_1 Bool )
(declare-var main@%shadow.mem.0.0_2 (Array Int Int) )
(declare-var main@%shadow.mem.4.0_2 (Array Int Int) )
(declare-var main@%.01.i_2 Int )
(declare-var main@_bb7_0 Bool )
(declare-var main@_bb8_0 Bool )
(declare-var main@%shadow.mem.0.1_0 (Array Int Int) )
(declare-var main@%.04.i_0 Int )
(declare-var main@%.0.i_0 Int )
(declare-var main@%shadow.mem.0.1_1 (Array Int Int) )
(declare-var main@%.04.i_1 Int )
(declare-var main@%.0.i_1 Int )
(declare-var main@_bb9_0 Bool )
(declare-var main@%sh_0 (Array Int Int) )
(declare-var main@_bb10_0 Bool )
(declare-var main@%sh2_0 (Array Int Int) )
(declare-var main@%_28_0 Int )
(declare-var main@_bb11_0 Bool )
(declare-var |tuple(main@_bb9_0, main@_bb11_0)| Bool )
(declare-var main@%shadow.mem.0.2_0 (Array Int Int) )
(declare-var main@%.15.i_0 Int )
(declare-var main@%shadow.mem.0.2_1 (Array Int Int) )
(declare-var main@%.15.i_1 Int )
(declare-var main@%_30_0 Int )
(declare-var main@_bb8_1 Bool )
(declare-var main@%shadow.mem.0.1_2 (Array Int Int) )
(declare-var main@%.04.i_2 Int )
(declare-var main@%.0.i_2 Int )
(declare-var main@_bb12_0 Bool )
(declare-var main@_bb13_0 Bool )
(declare-var main@%.06.i_0 Int )
(declare-var main@%.02.i_0 Int )
(declare-var main@%.1.i_0 Int )
(declare-var main@%.06.i_1 Int )
(declare-var main@%.02.i_1 Int )
(declare-var main@%.1.i_1 Int )
(declare-var main@_bb14_0 Bool )
(declare-var main@%..06.i_0 Int )
(declare-var main@%.1..02.i_0 Int )
(declare-var main@%_40_0 Int )
(declare-var main@_bb13_1 Bool )
(declare-var main@%.06.i_2 Int )
(declare-var main@%.02.i_2 Int )
(declare-var main@%.1.i_2 Int )
(declare-var main@_bb15_0 Bool )
(declare-var main@_bb16_0 Bool )
(declare-var main@_bb17_0 Bool )
(declare-var main@%shadow.mem.0.3_0 (Array Int Int) )
(declare-var main@%.2.i_0 Int )
(declare-var main@%shadow.mem.0.3_1 (Array Int Int) )
(declare-var main@%.2.i_1 Int )
(declare-var main@_bb18_0 Bool )
(declare-var main@%sm3_0 (Array Int Int) )
(declare-var main@%_50_0 Int )
(declare-var main@_bb17_1 Bool )
(declare-var main@%shadow.mem.0.3_2 (Array Int Int) )
(declare-var main@%.2.i_2 Int )
(declare-var main@_bb19_0 Bool )
(declare-var main@_bb20_0 Bool )
(declare-var main@_bb21_0 Bool )
(declare-var main@%.3.i_0 Int )
(declare-var main@%.3.i_1 Int )
(declare-var main@_bb22_0 Bool )
(declare-var main@%_60_0 Int )
(declare-var main@postcall_0 Bool )
(declare-var main@%_62_0 Int )
(declare-var main@_bb21_1 Bool )
(declare-var main@%.3.i_2 Int )
(declare-var main@precall_0 Bool )
(declare-var main@__JVERIFIER_assert_0 Bool )
(declare-var main@_bb23_0 Bool )
(declare-var main@verifier.error_0 Bool )
(declare-var main@verifier.error.split_0 Bool )
(rule (verifier.error false false false))
(rule (verifier.error false true true))
(rule (verifier.error true false true))
(rule (verifier.error true true true))
(rule (elem_exists true
             true
             true
             elem_exists@%sm_0
             elem_exists@%sm_0
             elem_exists@arg.0_0
             elem_exists@arg.1_0
             elem_exists@arg.2_0
             elem_exists@%.0_0))
(rule (elem_exists false
             true
             true
             elem_exists@%sm_0
             elem_exists@%sm_0
             elem_exists@arg.0_0
             elem_exists@arg.1_0
             elem_exists@arg.2_0
             elem_exists@%.0_0))
(rule (elem_exists false
             false
             false
             elem_exists@%sm_0
             elem_exists@%sm_0
             elem_exists@arg.0_0
             elem_exists@arg.1_0
             elem_exists@arg.2_0
             elem_exists@%.0_0))
(rule (elem_exists@_sm elem_exists@%sm_0
                 elem_exists@arg.0_0
                 elem_exists@arg.2_0
                 elem_exists@arg.1_0))
(rule (=> (and (elem_exists@_sm elem_exists@%sm_0
                          elem_exists@arg.0_0
                          elem_exists@arg.2_0
                          elem_exists@arg.1_0)
         true
         (=> elem_exists@_.01_0 (and elem_exists@_.01_0 elem_exists@_sm_0))
         (=> (and elem_exists@_.01_0 elem_exists@_sm_0)
             (= elem_exists@%.01_0 0))
         (=> (and elem_exists@_.01_0 elem_exists@_sm_0)
             (= elem_exists@%.01_1 elem_exists@%.01_0))
         elem_exists@_.01_0)
    (elem_exists@_.01 elem_exists@%sm_0
                      elem_exists@%.01_1
                      elem_exists@arg.0_0
                      elem_exists@arg.2_0
                      elem_exists@arg.1_0)))
(rule (let ((a!1 (=> elem_exists@_7_0
               (= elem_exists@%_call_0
                  (+ elem_exists@arg.0_0 (* elem_exists@%.01_0 4))))))
(let ((a!2 (and (elem_exists@_.01 elem_exists@%sm_0
                                  elem_exists@%.01_0
                                  elem_exists@arg.0_0
                                  elem_exists@arg.2_0
                                  elem_exists@arg.1_0)
                true
                (= elem_exists@%_br_0
                   (< elem_exists@%.01_0 elem_exists@arg.1_0))
                (=> elem_exists@_7_0 (and elem_exists@_7_0 elem_exists@_.01_0))
                (=> (and elem_exists@_7_0 elem_exists@_.01_0)
                    elem_exists@%_br_0)
                a!1
                (=> elem_exists@_7_0
                    (or (<= elem_exists@arg.0_0 0) (> elem_exists@%_call_0 0)))
                (=> elem_exists@_7_0 (> elem_exists@arg.0_0 0))
                (=> elem_exists@_7_0
                    (= elem_exists@%_9_0
                       (select elem_exists@%sm_0 elem_exists@%_call_0)))
                (=> elem_exists@_7_0
                    (= elem_exists@%_br1_0
                       (= elem_exists@%_9_0 elem_exists@arg.2_0)))
                (=> elem_exists@_11_0 (and elem_exists@_11_0 elem_exists@_7_0))
                (=> (and elem_exists@_11_0 elem_exists@_7_0)
                    (not elem_exists@%_br1_0))
                (=> elem_exists@_11_0
                    (= elem_exists@%_br2_0 (+ elem_exists@%.01_0 1)))
                (=> elem_exists@_.01_1
                    (and elem_exists@_.01_1 elem_exists@_11_0))
                (=> (and elem_exists@_.01_1 elem_exists@_11_0)
                    (= elem_exists@%.01_1 elem_exists@%_br2_0))
                (=> (and elem_exists@_.01_1 elem_exists@_11_0)
                    (= elem_exists@%.01_2 elem_exists@%.01_1))
                elem_exists@_.01_1)))
  (=> a!2
      (elem_exists@_.01 elem_exists@%sm_0
                        elem_exists@%.01_2
                        elem_exists@arg.0_0
                        elem_exists@arg.2_0
                        elem_exists@arg.1_0)))))
(rule (let ((a!1 (=> elem_exists@_7_0
               (= elem_exists@%_call_0
                  (+ elem_exists@arg.0_0 (* elem_exists@%.01_0 4))))))
(let ((a!2 (and (elem_exists@_.01 elem_exists@%sm_0
                                  elem_exists@%.01_0
                                  elem_exists@arg.0_0
                                  elem_exists@arg.2_0
                                  elem_exists@arg.1_0)
                true
                (= elem_exists@%_br_0
                   (< elem_exists@%.01_0 elem_exists@arg.1_0))
                (=> elem_exists@_7_0 (and elem_exists@_7_0 elem_exists@_.01_0))
                (=> (and elem_exists@_7_0 elem_exists@_.01_0)
                    elem_exists@%_br_0)
                a!1
                (=> elem_exists@_7_0
                    (or (<= elem_exists@arg.0_0 0) (> elem_exists@%_call_0 0)))
                (=> elem_exists@_7_0 (> elem_exists@arg.0_0 0))
                (=> elem_exists@_7_0
                    (= elem_exists@%_9_0
                       (select elem_exists@%sm_0 elem_exists@%_call_0)))
                (=> elem_exists@_7_0
                    (= elem_exists@%_br1_0
                       (= elem_exists@%_9_0 elem_exists@arg.2_0)))
                (=> |tuple(elem_exists@_7_0, elem_exists@_.0_0)|
                    elem_exists@_7_0)
                (=> |tuple(elem_exists@_.01_0, elem_exists@_.0_0)|
                    elem_exists@_.01_0)
                (=> elem_exists@_.0_0
                    (or |tuple(elem_exists@_7_0, elem_exists@_.0_0)|
                        |tuple(elem_exists@_.01_0, elem_exists@_.0_0)|))
                (=> |tuple(elem_exists@_7_0, elem_exists@_.0_0)|
                    elem_exists@%_br1_0)
                (=> |tuple(elem_exists@_.01_0, elem_exists@_.0_0)|
                    (not elem_exists@%_br_0))
                (=> |tuple(elem_exists@_7_0, elem_exists@_.0_0)|
                    (= elem_exists@%.0_0 1))
                (=> |tuple(elem_exists@_.01_0, elem_exists@_.0_0)|
                    (= elem_exists@%.0_1 0))
                (=> |tuple(elem_exists@_7_0, elem_exists@_.0_0)|
                    (= elem_exists@%.0_2 elem_exists@%.0_0))
                (=> |tuple(elem_exists@_.01_0, elem_exists@_.0_0)|
                    (= elem_exists@%.0_2 elem_exists@%.0_1))
                (=> elem_exists@.split_0
                    (and elem_exists@.split_0 elem_exists@_.0_0))
                elem_exists@.split_0)))
  (=> a!2
      (elem_exists@.split
        elem_exists@%sm_0
        elem_exists@%.0_2
        elem_exists@arg.0_0
        elem_exists@arg.2_0
        elem_exists@arg.1_0)))))
(rule (=> (elem_exists@.split
      elem_exists@%sm_0
      elem_exists@%.0_0
      elem_exists@arg.0_0
      elem_exists@arg.2_0
      elem_exists@arg.1_0)
    (elem_exists true
                 false
                 false
                 elem_exists@%sm_0
                 elem_exists@%sm_0
                 elem_exists@arg.0_0
                 elem_exists@arg.1_0
                 elem_exists@arg.2_0
                 elem_exists@%.0_0)))
(rule (insert true
        true
        true
        insert@%sm1_0
        insert@%sm_0
        insert@arg.0_0
        insert@arg.1_0
        insert@arg.2_0
        insert@%_br_0))
(rule (insert false
        true
        true
        insert@%sm1_0
        insert@%sm_0
        insert@arg.0_0
        insert@arg.1_0
        insert@arg.2_0
        insert@%_br_0))
(rule (insert false
        false
        false
        insert@%sm1_0
        insert@%sm_0
        insert@arg.0_0
        insert@arg.1_0
        insert@arg.2_0
        insert@%_br_0))
(rule (insert@_sm1 insert@%sm1_0 insert@arg.0_0 insert@arg.1_0 insert@arg.2_0))
(rule (let ((a!1 (and (insert@_sm1 insert@%sm1_0
                             insert@arg.0_0
                             insert@arg.1_0
                             insert@arg.2_0)
                true
                (= insert@%_sm_0 (+ insert@arg.0_0 (* insert@arg.1_0 4)))
                (or (<= insert@arg.0_0 0) (> insert@%_sm_0 0))
                (> insert@arg.0_0 0)
                (= insert@%sm_0
                   (store insert@%sm1_0 insert@%_sm_0 insert@arg.2_0))
                (= insert@%_br_0 (+ insert@arg.1_0 1))
                (=> insert@.split_0 (and insert@.split_0 insert@_sm1_0))
                insert@.split_0)))
  (=> a!1
      (insert@.split insert@%sm1_0
                     insert@%sm_0
                     insert@%_br_0
                     insert@arg.0_0
                     insert@arg.1_0
                     insert@arg.2_0))))
(rule (=> (insert@.split insert@%sm1_0
                   insert@%sm_0
                   insert@%_br_0
                   insert@arg.0_0
                   insert@arg.1_0
                   insert@arg.2_0)
    (insert true
            false
            false
            insert@%sm1_0
            insert@%sm_0
            insert@arg.0_0
            insert@arg.1_0
            insert@arg.2_0
            insert@%_br_0)))
(rule (__JVERIFIER_assert true true true __JVERIFIER_assert@arg.0_0))
(rule (__JVERIFIER_assert false true true __JVERIFIER_assert@arg.0_0))
(rule (__JVERIFIER_assert false false false __JVERIFIER_assert@arg.0_0))
(rule (__JVERIFIER_assert@_call __JVERIFIER_assert@arg.0_0))
(rule (=> (and (__JVERIFIER_assert@_call __JVERIFIER_assert@arg.0_0)
         true
         (= __JVERIFIER_assert@%_call1_0 (= __JVERIFIER_assert@arg.0_0 0))
         (not __JVERIFIER_assert@%_call1_0)
         (=> __JVERIFIER_assert@_ret_0
             (and __JVERIFIER_assert@_ret_0 __JVERIFIER_assert@_call_0))
         __JVERIFIER_assert@_ret_0)
    (__JVERIFIER_assert@_ret __JVERIFIER_assert@arg.0_0)))
(rule (=> (__JVERIFIER_assert@_ret __JVERIFIER_assert@arg.0_0)
    (__JVERIFIER_assert true false false __JVERIFIER_assert@arg.0_0)))
(rule (main@entry @__VERIFIER_nondet_int_0))
(rule (=> (and (main@entry @__VERIFIER_nondet_int_0)
         true
         (> main@%_0_0 0)
         (> main@%_1_0 0)
         (= main@%_3_0 main@%_0_0)
         (= main@%_4_0 main@%_1_0)
         (=> main@_bb_0 (and main@_bb_0 main@entry_0))
         (=> (and main@_bb_0 main@entry_0)
             (= main@%shadow.mem.0.0_0 main@%sm5_0))
         (=> (and main@_bb_0 main@entry_0)
             (= main@%shadow.mem.4.0_0 main@%sm4_0))
         (=> (and main@_bb_0 main@entry_0) (= main@%.01.i_0 0))
         (=> (and main@_bb_0 main@entry_0)
             (= main@%shadow.mem.0.0_1 main@%shadow.mem.0.0_0))
         (=> (and main@_bb_0 main@entry_0)
             (= main@%shadow.mem.4.0_1 main@%shadow.mem.4.0_0))
         (=> (and main@_bb_0 main@entry_0) (= main@%.01.i_1 main@%.01.i_0))
         main@_bb_0)
    (main@_bb main@%_0_0
              main@%.01.i_1
              main@%shadow.mem.0.0_1
              @__VERIFIER_nondet_int_0
              main@%_1_0
              main@%shadow.mem.4.0_1
              main@%_2_0)))
(rule (let ((a!1 (=> main@_bb6_0
               (= main@%_10_0 (+ main@%_0_0 (* 0 400000) (* main@%.01.i_0 4)))))
      (a!2 (=> main@_bb6_0
               (= main@%_13_0 (+ main@%_1_0 (* 0 400000) (* main@%.01.i_0 4))))))
(let ((a!3 (and (main@_bb main@%_0_0
                          main@%.01.i_0
                          main@%shadow.mem.0.0_0
                          @__VERIFIER_nondet_int_0
                          main@%_1_0
                          main@%shadow.mem.4.0_0
                          main@%_2_0)
                true
                (= main@%_6_0 (< main@%.01.i_0 100000))
                (= main@%_7_0 @__VERIFIER_nondet_int_0)
                (=> main@_bb6_0 (and main@_bb6_0 main@_bb_0))
                (=> (and main@_bb6_0 main@_bb_0) main@%_6_0)
                a!1
                (=> main@_bb6_0 (or (<= main@%_0_0 0) (> main@%_10_0 0)))
                (=> main@_bb6_0 (> main@%_0_0 0))
                (=> main@_bb6_0
                    (= main@%sm_0
                       (store main@%shadow.mem.0.0_0 main@%_10_0 main@%_8_0)))
                (=> main@_bb6_0 (= main@%_11_0 @__VERIFIER_nondet_int_0))
                a!2
                (=> main@_bb6_0 (or (<= main@%_1_0 0) (> main@%_13_0 0)))
                (=> main@_bb6_0 (> main@%_1_0 0))
                (=> main@_bb6_0
                    (= main@%sm1_0
                       (store main@%shadow.mem.4.0_0 main@%_13_0 main@%_12_0)))
                (=> main@_bb6_0 (= main@%_14_0 (+ main@%.01.i_0 1)))
                (=> main@_bb_1 (and main@_bb_1 main@_bb6_0))
                (=> (and main@_bb_1 main@_bb6_0)
                    (= main@%shadow.mem.0.0_1 main@%sm_0))
                (=> (and main@_bb_1 main@_bb6_0)
                    (= main@%shadow.mem.4.0_1 main@%sm1_0))
                (=> (and main@_bb_1 main@_bb6_0) (= main@%.01.i_1 main@%_14_0))
                (=> (and main@_bb_1 main@_bb6_0)
                    (= main@%shadow.mem.0.0_2 main@%shadow.mem.0.0_1))
                (=> (and main@_bb_1 main@_bb6_0)
                    (= main@%shadow.mem.4.0_2 main@%shadow.mem.4.0_1))
                (=> (and main@_bb_1 main@_bb6_0)
                    (= main@%.01.i_2 main@%.01.i_1))
                main@_bb_1)))
  (=> a!3
      (main@_bb main@%_0_0
                main@%.01.i_2
                main@%shadow.mem.0.0_2
                @__VERIFIER_nondet_int_0
                main@%_1_0
                main@%shadow.mem.4.0_2
                main@%_2_0)))))
(rule (=> (and (main@_bb main@%_0_0
                   main@%.01.i_0
                   main@%shadow.mem.0.0_0
                   @__VERIFIER_nondet_int_0
                   main@%_1_0
                   main@%shadow.mem.4.0_0
                   main@%_2_0)
         true
         (= main@%_6_0 (< main@%.01.i_0 100000))
         (= main@%_7_0 @__VERIFIER_nondet_int_0)
         (=> main@_bb7_0 (and main@_bb7_0 main@_bb_0))
         (=> (and main@_bb7_0 main@_bb_0) (not main@%_6_0))
         (=> main@_bb8_0 (and main@_bb8_0 main@_bb7_0))
         (=> (and main@_bb8_0 main@_bb7_0)
             (= main@%shadow.mem.0.1_0 main@%shadow.mem.0.0_0))
         (=> (and main@_bb8_0 main@_bb7_0) (= main@%.04.i_0 0))
         (=> (and main@_bb8_0 main@_bb7_0) (= main@%.0.i_0 0))
         (=> (and main@_bb8_0 main@_bb7_0)
             (= main@%shadow.mem.0.1_1 main@%shadow.mem.0.1_0))
         (=> (and main@_bb8_0 main@_bb7_0) (= main@%.04.i_1 main@%.04.i_0))
         (=> (and main@_bb8_0 main@_bb7_0) (= main@%.0.i_1 main@%.0.i_0))
         main@_bb8_0)
    (main@_bb8 main@%_0_0
               main@%_8_0
               main@%_1_0
               main@%shadow.mem.4.0_0
               main@%.0.i_1
               main@%shadow.mem.0.1_1
               main@%.04.i_1
               main@%_2_0)))
(rule (let ((a!1 (=> main@_bb9_0 (= main@%_19_0 (+ main@%_0_0 (* 0 400000) (* 0 4)))))
      (a!2 (=> main@_bb9_0
               (= main@%_20_0 (+ main@%_1_0 (* 0 400000) (* main@%.0.i_0 4)))))
      (a!3 (=> main@_bb10_0 (= main@%_25_0 (+ main@%_0_0 (* 0 400000) (* 0 4)))))
      (a!4 (=> main@_bb10_0
               (= main@%_26_0 (+ main@%_1_0 (* 0 400000) (* main@%.0.i_0 4))))))
(let ((a!5 (and (main@_bb8 main@%_0_0
                           main@%_8_0
                           main@%_1_0
                           main@%shadow.mem.4.0_0
                           main@%.0.i_0
                           main@%shadow.mem.0.1_0
                           main@%.04.i_0
                           main@%_2_0)
                true
                (= main@%_17_0 (< main@%.0.i_0 100000))
                (=> main@_bb9_0 (and main@_bb9_0 main@_bb8_0))
                (=> (and main@_bb9_0 main@_bb8_0) main@%_17_0)
                a!1
                (=> main@_bb9_0 (or (<= main@%_0_0 0) (> main@%_19_0 0)))
                a!2
                (=> main@_bb9_0 (or (<= main@%_1_0 0) (> main@%_20_0 0)))
                (=> main@_bb9_0 (> main@%_1_0 0))
                (=> main@_bb9_0
                    (= main@%_21_0 (select main@%shadow.mem.4.0_0 main@%_20_0)))
                (elem_exists main@_bb9_0
                             false
                             false
                             main@%shadow.mem.0.1_0
                             main@%sh_0
                             main@%_19_0
                             main@%.04.i_0
                             main@%_21_0
                             main@%_22_0)
                (=> main@_bb9_0 (= main@%_23_0 (= main@%_22_0 1)))
                (=> main@_bb10_0 (and main@_bb10_0 main@_bb9_0))
                (=> (and main@_bb10_0 main@_bb9_0) (not main@%_23_0))
                a!3
                (=> main@_bb10_0 (or (<= main@%_0_0 0) (> main@%_25_0 0)))
                a!4
                (=> main@_bb10_0 (or (<= main@%_1_0 0) (> main@%_26_0 0)))
                (=> main@_bb10_0 (> main@%_1_0 0))
                (=> main@_bb10_0
                    (= main@%_27_0 (select main@%shadow.mem.4.0_0 main@%_26_0)))
                (insert main@_bb10_0
                        false
                        false
                        main@%sh_0
                        main@%sh2_0
                        main@%_25_0
                        main@%.04.i_0
                        main@%_27_0
                        main@%_28_0)
                (=> |tuple(main@_bb9_0, main@_bb11_0)| main@_bb9_0)
                (=> main@_bb11_0
                    (or (and main@_bb11_0 main@_bb10_0)
                        |tuple(main@_bb9_0, main@_bb11_0)|))
                (=> |tuple(main@_bb9_0, main@_bb11_0)| main@%_23_0)
                (=> (and main@_bb11_0 main@_bb10_0)
                    (= main@%shadow.mem.0.2_0 main@%sh2_0))
                (=> (and main@_bb11_0 main@_bb10_0)
                    (= main@%.15.i_0 main@%_28_0))
                (=> |tuple(main@_bb9_0, main@_bb11_0)|
                    (= main@%shadow.mem.0.2_1 main@%sh_0))
                (=> |tuple(main@_bb9_0, main@_bb11_0)|
                    (= main@%.15.i_1 main@%.04.i_0))
                (=> (and main@_bb11_0 main@_bb10_0)
                    (= main@%shadow.mem.0.2_2 main@%shadow.mem.0.2_0))
                (=> (and main@_bb11_0 main@_bb10_0)
                    (= main@%.15.i_2 main@%.15.i_0))
                (=> |tuple(main@_bb9_0, main@_bb11_0)|
                    (= main@%shadow.mem.0.2_2 main@%shadow.mem.0.2_1))
                (=> |tuple(main@_bb9_0, main@_bb11_0)|
                    (= main@%.15.i_2 main@%.15.i_1))
                (=> main@_bb11_0 (= main@%_30_0 (+ main@%.0.i_0 1)))
                (=> main@_bb8_1 (and main@_bb8_1 main@_bb11_0))
                (=> (and main@_bb8_1 main@_bb11_0)
                    (= main@%shadow.mem.0.1_1 main@%shadow.mem.0.2_2))
                (=> (and main@_bb8_1 main@_bb11_0)
                    (= main@%.04.i_1 main@%.15.i_2))
                (=> (and main@_bb8_1 main@_bb11_0) (= main@%.0.i_1 main@%_30_0))
                (=> (and main@_bb8_1 main@_bb11_0)
                    (= main@%shadow.mem.0.1_2 main@%shadow.mem.0.1_1))
                (=> (and main@_bb8_1 main@_bb11_0)
                    (= main@%.04.i_2 main@%.04.i_1))
                (=> (and main@_bb8_1 main@_bb11_0)
                    (= main@%.0.i_2 main@%.0.i_1))
                main@_bb8_1)))
  (=> a!5
      (main@_bb8 main@%_0_0
                 main@%_8_0
                 main@%_1_0
                 main@%shadow.mem.4.0_0
                 main@%.0.i_2
                 main@%shadow.mem.0.1_2
                 main@%.04.i_2
                 main@%_2_0)))))
(rule (=> (and (main@_bb8 main@%_0_0
                    main@%_8_0
                    main@%_1_0
                    main@%shadow.mem.4.0_0
                    main@%.0.i_0
                    main@%shadow.mem.0.1_0
                    main@%.04.i_0
                    main@%_2_0)
         true
         (= main@%_17_0 (< main@%.0.i_0 100000))
         (=> main@_bb12_0 (and main@_bb12_0 main@_bb8_0))
         (=> (and main@_bb12_0 main@_bb8_0) (not main@%_17_0))
         (=> main@_bb13_0 (and main@_bb13_0 main@_bb12_0))
         (=> (and main@_bb13_0 main@_bb12_0) (= main@%.06.i_0 0))
         (=> (and main@_bb13_0 main@_bb12_0) (= main@%.02.i_0 main@%_2_0))
         (=> (and main@_bb13_0 main@_bb12_0) (= main@%.1.i_0 0))
         (=> (and main@_bb13_0 main@_bb12_0) (= main@%.06.i_1 main@%.06.i_0))
         (=> (and main@_bb13_0 main@_bb12_0) (= main@%.02.i_1 main@%.02.i_0))
         (=> (and main@_bb13_0 main@_bb12_0) (= main@%.1.i_1 main@%.1.i_0))
         main@_bb13_0)
    (main@_bb13 main@%_0_0
                main@%_8_0
                main@%shadow.mem.0.1_0
                main@%.1.i_1
                main@%.06.i_1
                main@%.02.i_1)))
(rule (let ((a!1 (=> main@_bb14_0
               (= main@%_37_0 (+ main@%_0_0 (* 0 400000) (* main@%.1.i_0 4))))))
(let ((a!2 (and (main@_bb13 main@%_0_0
                            main@%_8_0
                            main@%shadow.mem.0.1_0
                            main@%.1.i_0
                            main@%.06.i_0
                            main@%.02.i_0)
                true
                (= main@%_33_0 (< main@%.1.i_0 100000))
                (= main@%_34_0 (not (= main@%.06.i_0 1)))
                (= main@%_35_0 (and main@%_33_0 main@%_34_0))
                (=> main@_bb14_0 (and main@_bb14_0 main@_bb13_0))
                (=> (and main@_bb14_0 main@_bb13_0) main@%_35_0)
                a!1
                (=> main@_bb14_0 (or (<= main@%_0_0 0) (> main@%_37_0 0)))
                (=> main@_bb14_0 (> main@%_0_0 0))
                (=> main@_bb14_0
                    (= main@%_38_0 (select main@%shadow.mem.0.1_0 main@%_37_0)))
                (=> main@_bb14_0 (= main@%_39_0 (= main@%_38_0 main@%_8_0)))
                (=> main@_bb14_0
                    (= main@%..06.i_0 (ite main@%_39_0 1 main@%.06.i_0)))
                (=> main@_bb14_0
                    (= main@%.1..02.i_0
                       (ite main@%_39_0 main@%.1.i_0 main@%.02.i_0)))
                (=> main@_bb14_0 (= main@%_40_0 (+ main@%.1.i_0 1)))
                (=> main@_bb13_1 (and main@_bb13_1 main@_bb14_0))
                (=> (and main@_bb13_1 main@_bb14_0)
                    (= main@%.06.i_1 main@%..06.i_0))
                (=> (and main@_bb13_1 main@_bb14_0)
                    (= main@%.02.i_1 main@%.1..02.i_0))
                (=> (and main@_bb13_1 main@_bb14_0)
                    (= main@%.1.i_1 main@%_40_0))
                (=> (and main@_bb13_1 main@_bb14_0)
                    (= main@%.06.i_2 main@%.06.i_1))
                (=> (and main@_bb13_1 main@_bb14_0)
                    (= main@%.02.i_2 main@%.02.i_1))
                (=> (and main@_bb13_1 main@_bb14_0)
                    (= main@%.1.i_2 main@%.1.i_1))
                main@_bb13_1)))
  (=> a!2
      (main@_bb13 main@%_0_0
                  main@%_8_0
                  main@%shadow.mem.0.1_0
                  main@%.1.i_2
                  main@%.06.i_2
                  main@%.02.i_2)))))
(rule (let ((a!1 (and (main@_bb13 main@%_0_0
                            main@%_8_0
                            main@%shadow.mem.0.1_0
                            main@%.1.i_0
                            main@%.06.i_0
                            main@%.02.i_0)
                true
                (= main@%_33_0 (< main@%.1.i_0 100000))
                (= main@%_34_0 (not (= main@%.06.i_0 1)))
                (= main@%_35_0 (and main@%_33_0 main@%_34_0))
                (=> main@_bb15_0 (and main@_bb15_0 main@_bb13_0))
                (=> (and main@_bb15_0 main@_bb13_0) (not main@%_35_0))
                (=> main@_bb15_0 (= main@%cond.i_0 (= main@%.06.i_0 1)))
                (=> main@_bb15_0 main@%cond.i_0)
                (=> main@_bb16_0 (and main@_bb16_0 main@_bb15_0))
                (=> main@_bb17_0 (and main@_bb17_0 main@_bb16_0))
                (=> (and main@_bb17_0 main@_bb16_0)
                    (= main@%shadow.mem.0.3_0 main@%shadow.mem.0.1_0))
                (=> (and main@_bb17_0 main@_bb16_0)
                    (= main@%.2.i_0 main@%.02.i_0))
                (=> (and main@_bb17_0 main@_bb16_0)
                    (= main@%shadow.mem.0.3_1 main@%shadow.mem.0.3_0))
                (=> (and main@_bb17_0 main@_bb16_0)
                    (= main@%.2.i_1 main@%.2.i_0))
                main@_bb17_0)))
  (=> a!1
      (main@_bb17 main@%_0_0
                  main@%_8_0
                  main@%.06.i_0
                  main@%.2.i_1
                  main@%shadow.mem.0.3_1))))
(rule (let ((a!1 (= main@%_47_0 (+ (+ main@%_0_0 (* 0 400000)) (* main@%_46_0 4))))
      (a!2 (= main@%_49_0 (+ (+ main@%_0_0 (* 0 400000)) (* main@%.2.i_0 4)))))
(let ((a!3 (and (main@_bb17 main@%_0_0
                            main@%_8_0
                            main@%.06.i_0
                            main@%.2.i_0
                            main@%shadow.mem.0.3_0)
                true
                (= main@%_44_0 (< main@%.2.i_0 99999))
                (=> main@_bb18_0 (and main@_bb18_0 main@_bb17_0))
                (=> (and main@_bb18_0 main@_bb17_0) main@%_44_0)
                (=> main@_bb18_0 (= main@%_46_0 (+ main@%.2.i_0 1)))
                (=> main@_bb18_0 a!1)
                (=> main@_bb18_0 (or (<= main@%_0_0 0) (> main@%_47_0 0)))
                (=> main@_bb18_0 (> main@%_0_0 0))
                (=> main@_bb18_0
                    (= main@%_48_0 (select main@%shadow.mem.0.3_0 main@%_47_0)))
                (=> main@_bb18_0 a!2)
                (=> main@_bb18_0 (or (<= main@%_0_0 0) (> main@%_49_0 0)))
                (=> main@_bb18_0 (> main@%_0_0 0))
                (=> main@_bb18_0
                    (= main@%sm3_0
                       (store main@%shadow.mem.0.3_0 main@%_49_0 main@%_48_0)))
                (=> main@_bb18_0 (= main@%_50_0 (+ main@%.2.i_0 1)))
                (=> main@_bb17_1 (and main@_bb17_1 main@_bb18_0))
                (=> (and main@_bb17_1 main@_bb18_0)
                    (= main@%shadow.mem.0.3_1 main@%sm3_0))
                (=> (and main@_bb17_1 main@_bb18_0)
                    (= main@%.2.i_1 main@%_50_0))
                (=> (and main@_bb17_1 main@_bb18_0)
                    (= main@%shadow.mem.0.3_2 main@%shadow.mem.0.3_1))
                (=> (and main@_bb17_1 main@_bb18_0)
                    (= main@%.2.i_2 main@%.2.i_1))
                main@_bb17_1)))
  (=> a!3
      (main@_bb17 main@%_0_0
                  main@%_8_0
                  main@%.06.i_0
                  main@%.2.i_2
                  main@%shadow.mem.0.3_2)))))
(rule (let ((a!1 (and (main@_bb17 main@%_0_0
                            main@%_8_0
                            main@%.06.i_0
                            main@%.2.i_0
                            main@%shadow.mem.0.3_0)
                true
                (= main@%_44_0 (< main@%.2.i_0 99999))
                (=> main@_bb19_0 (and main@_bb19_0 main@_bb17_0))
                (=> (and main@_bb19_0 main@_bb17_0) (not main@%_44_0))
                (=> main@_bb19_0 (= main@%_52_0 (= main@%.06.i_0 1)))
                (=> main@_bb19_0 main@%_52_0)
                (=> main@_bb20_0 (and main@_bb20_0 main@_bb19_0))
                (=> main@_bb21_0 (and main@_bb21_0 main@_bb20_0))
                (=> (and main@_bb21_0 main@_bb20_0) (= main@%.3.i_0 0))
                (=> (and main@_bb21_0 main@_bb20_0)
                    (= main@%.3.i_1 main@%.3.i_0))
                main@_bb21_0)))
  (=> a!1
      (main@_bb21 main@%_0_0 main@%_8_0 main@%shadow.mem.0.3_0 main@%.3.i_1))))
(rule (let ((a!1 (=> main@_bb22_0
               (= main@%_57_0 (+ main@%_0_0 (* 0 400000) (* main@%.3.i_0 4)))))
      (a!2 (=> main@_bb22_0 (= main@%_59_0 (not (= main@%_58_0 main@%_8_0))))))
(let ((a!3 (and (main@_bb21 main@%_0_0
                            main@%_8_0
                            main@%shadow.mem.0.3_0
                            main@%.3.i_0)
                true
                (= main@%_55_0 (< main@%.3.i_0 99999))
                main@%_55_0
                (=> main@_bb22_0 (and main@_bb22_0 main@_bb21_0))
                a!1
                (=> main@_bb22_0 (or (<= main@%_0_0 0) (> main@%_57_0 0)))
                (=> main@_bb22_0 (> main@%_0_0 0))
                (=> main@_bb22_0
                    (= main@%_58_0 (select main@%shadow.mem.0.3_0 main@%_57_0)))
                a!2
                (=> main@_bb22_0 (= main@%_60_0 (ite main@%_59_0 1 0)))
                (=> main@postcall_0 (and main@postcall_0 main@_bb22_0))
                (=> (and main@postcall_0 main@_bb22_0) main@%_61_0)
                (__JVERIFIER_assert main@postcall_0 false false main@%_60_0)
                (=> main@postcall_0 (= main@%_62_0 (+ main@%.3.i_0 1)))
                (=> main@_bb21_1 (and main@_bb21_1 main@postcall_0))
                (=> (and main@_bb21_1 main@postcall_0)
                    (= main@%.3.i_1 main@%_62_0))
                (=> (and main@_bb21_1 main@postcall_0)
                    (= main@%.3.i_2 main@%.3.i_1))
                main@_bb21_1)))
  (=> a!3
      (main@_bb21 main@%_0_0 main@%_8_0 main@%shadow.mem.0.3_0 main@%.3.i_2)))))
(rule (let ((a!1 (=> main@_bb22_0
               (= main@%_57_0 (+ main@%_0_0 (* 0 400000) (* main@%.3.i_0 4)))))
      (a!2 (=> main@_bb22_0 (= main@%_59_0 (not (= main@%_58_0 main@%_8_0))))))
(let ((a!3 (and (main@_bb21 main@%_0_0
                            main@%_8_0
                            main@%shadow.mem.0.3_0
                            main@%.3.i_0)
                true
                (= main@%_55_0 (< main@%.3.i_0 99999))
                main@%_55_0
                (=> main@_bb22_0 (and main@_bb22_0 main@_bb21_0))
                a!1
                (=> main@_bb22_0 (or (<= main@%_0_0 0) (> main@%_57_0 0)))
                (=> main@_bb22_0 (> main@%_0_0 0))
                (=> main@_bb22_0
                    (= main@%_58_0 (select main@%shadow.mem.0.3_0 main@%_57_0)))
                a!2
                (=> main@_bb22_0 (= main@%_60_0 (ite main@%_59_0 1 0)))
                (=> main@precall_0 (and main@precall_0 main@_bb22_0))
                (=> (and main@precall_0 main@_bb22_0) (not main@%_61_0))
                (=> main@__JVERIFIER_assert_0
                    (and main@__JVERIFIER_assert_0 main@precall_0))
                (=> main@__JVERIFIER_assert_0 (= main@%_63_0 (= main@%_60_0 0)))
                (=> main@__JVERIFIER_assert_0 main@%_63_0)
                (=> main@_bb23_0 (and main@_bb23_0 main@__JVERIFIER_assert_0))
                (=> main@verifier.error_0
                    (and main@verifier.error_0 main@_bb23_0))
                (=> main@verifier.error.split_0
                    (and main@verifier.error.split_0 main@verifier.error_0))
                main@verifier.error.split_0)))
  (=> a!3 main@verifier.error.split))))
(query main@verifier.error.split)

